189369
2,19,66,75,49,17,36,38,0,35,65,70,20,47,23,30,18,4,21,43,67,58,52,7,82,27,78,5,81,60,14,68,24,41,54,22,11,56,42,59,46,80,71,50,33,48,77,34,29,1,37,15,32,26,6,55,16,10,39,73,57,76,8,31,74,3,40,62,51,64,12,9,28,63,72,44,45,53,79,69,25,61,13